<number of tasks>
50

<cycle time>
1000

<order strength>
0.596


<task times>
1 100
2 161
3 59
4 126
5 143
6 269
7 101
8 73
9 103
10 224
11 267
12 42
13 112
14 69
15 159
16 71
17 86
18 88
19 65
20 120
21 140
22 86
23 196
24 73
25 199
26 268
27 66
28 249
29 299
30 28
31 133
32 91
33 134
34 166
35 88
36 107
37 176
38 36
39 202
40 165
41 48
42 116
43 230
44 159
45 121
46 197
47 193
48 105
49 154
50 167

<precedence relations>
1,27
2,27
3,25
4,5
4,6
4,7
4,8
4,9
5,15
6,15
7,25
8,14
8,17
9,10
9,11
9,12
9,13
9,14
10,15
11,15
12,27
13,16
13,17
13,18
13,19
13,34
14,15
14,16
15,20
15,21
15,22
15,23
15,24
16,25
17,25
18,26
19,39
19,40
20,27
21,27
21,34
22,27
22,34
23,27
23,34
24,27
25,27
25,28
25,29
25,30
25,31
25,32
25,33
26,27
27,35
27,36
27,37
27,38
27,39
27,40
28,39
28,40
29,39
29,40
30,49
31,47
31,49
32,50
34,40
35,41
35,42
35,45
36,46
37,42
38,41
38,45
39,41
39,43
40,41
40,42
41,46
41,47
42,44
42,46
42,47
43,44
43,45
43,49
44,48
46,48
46,49
47,50
48,50
49,50

<end>
